Traveling Salesman Problem/TSP_generados/Aleatorio1621103675_17.tsp
NAME: Aleatorio1621103675_17.tsp
COMMENT: Randomly generated scenario
TYPE: TSP
DIMENSION: 17
EDGE_WEIGHT_TYPE: ATT
NODE_COORD_SECTION
1 39.04 21.34
2 42.88 17.15
3 46.27 44.97
4 12.83 17.76
5 17.29 23.57
6 47.14 44.28
7 45.25 49.07
8 48.71 4.5
9 14.33 42.07
10 35.18 41.97
11 31.28 30.84
12 18.74 31.73
13 41.53 8.36
14 21.49 10.39
15 42.83 33.52
16 36.45 40.89
17 30.0 0.16
