Traveling Salesman Problem/TSP_generados/Aleatorio1621103675_17.opt.tour
NAME: Aleatorio1621103675_17.opt.tour
COMMENT: Optimal solution for Aleatorio1621103675_17 (168.74990114789267)
TYPE: TOUR
DIMENSION: 17
TOUR_SECTION
1 2 8 13 17 14 4 5 12 9 11 16 10 7 3 6 15
-1
EOF
